c CNF file corresponding to a (partial) station packing problem.
p cnf 3575 243
1 2 3 4 5 6 7 8 9 10 11 12 13 14 0
-1 -2 0
-1 -3 0
-1 -4 0
-1 -5 0
-1 -6 0
-1 -7 0
-1 -8 0
-1 -9 0
-1 -10 0
-1 -11 0
-1 -12 0
-1 -13 0
-1 -14 0
-2 -3 0
-2 -4 0
-2 -5 0
-2 -6 0
-2 -7 0
-2 -8 0
-2 -9 0
-2 -10 0
-2 -11 0
-2 -12 0
-2 -13 0
-2 -14 0
-3 -4 0
-3 -5 0
-3 -6 0
-3 -7 0
-3 -8 0
-3 -9 0
-3 -10 0
-3 -11 0
-3 -12 0
-3 -13 0
-3 -14 0
-4 -5 0
-4 -6 0
-4 -7 0
-4 -8 0
-4 -9 0
-4 -10 0
-4 -11 0
-4 -12 0
-4 -13 0
-4 -14 0
-5 -6 0
-5 -7 0
-5 -8 0
-5 -9 0
-5 -10 0
-5 -11 0
-5 -12 0
-5 -13 0
-5 -14 0
-6 -7 0
-6 -8 0
-6 -9 0
-6 -10 0
-6 -11 0
-6 -12 0
-6 -13 0
-6 -14 0
-7 -8 0
-7 -9 0
-7 -10 0
-7 -11 0
-7 -12 0
-7 -13 0
-7 -14 0
-8 -9 0
-8 -10 0
-8 -11 0
-8 -12 0
-8 -13 0
-8 -14 0
-9 -10 0
-9 -11 0
-9 -12 0
-9 -13 0
-9 -14 0
-10 -11 0
-10 -12 0
-10 -13 0
-10 -14 0
-11 -12 0
-11 -13 0
-11 -14 0
-12 -13 0
-12 -14 0
-13 -14 0
-3572 -11 0
-8 -3569 0
-3570 -9 0
-3565 -4 0
-7 -3568 0
-1 -3561 0
-3 -3563 0
-3573 -12 0
-3562 -2 0
-10 -3571 0
-6 -3567 0
-3566 -5 0
-3574 -13 0
-14 -3575 0
3559 3560 3561 3562 3563 3564 3565 3566 3567 3568 3569 3570 3571 3572 3573 3574 3575 0
-3559 -3560 0
-3559 -3561 0
-3559 -3562 0
-3559 -3563 0
-3559 -3564 0
-3559 -3565 0
-3559 -3566 0
-3559 -3567 0
-3559 -3568 0
-3559 -3569 0
-3559 -3570 0
-3559 -3571 0
-3559 -3572 0
-3559 -3573 0
-3559 -3574 0
-3559 -3575 0
-3560 -3561 0
-3560 -3562 0
-3560 -3563 0
-3560 -3564 0
-3560 -3565 0
-3560 -3566 0
-3560 -3567 0
-3560 -3568 0
-3560 -3569 0
-3560 -3570 0
-3560 -3571 0
-3560 -3572 0
-3560 -3573 0
-3560 -3574 0
-3560 -3575 0
-3561 -3562 0
-3561 -3563 0
-3561 -3564 0
-3561 -3565 0
-3561 -3566 0
-3561 -3567 0
-3561 -3568 0
-3561 -3569 0
-3561 -3570 0
-3561 -3571 0
-3561 -3572 0
-3561 -3573 0
-3561 -3574 0
-3561 -3575 0
-3562 -3563 0
-3562 -3564 0
-3562 -3565 0
-3562 -3566 0
-3562 -3567 0
-3562 -3568 0
-3562 -3569 0
-3562 -3570 0
-3562 -3571 0
-3562 -3572 0
-3562 -3573 0
-3562 -3574 0
-3562 -3575 0
-3563 -3564 0
-3563 -3565 0
-3563 -3566 0
-3563 -3567 0
-3563 -3568 0
-3563 -3569 0
-3563 -3570 0
-3563 -3571 0
-3563 -3572 0
-3563 -3573 0
-3563 -3574 0
-3563 -3575 0
-3564 -3565 0
-3564 -3566 0
-3564 -3567 0
-3564 -3568 0
-3564 -3569 0
-3564 -3570 0
-3564 -3571 0
-3564 -3572 0
-3564 -3573 0
-3564 -3574 0
-3564 -3575 0
-3565 -3566 0
-3565 -3567 0
-3565 -3568 0
-3565 -3569 0
-3565 -3570 0
-3565 -3571 0
-3565 -3572 0
-3565 -3573 0
-3565 -3574 0
-3565 -3575 0
-3566 -3567 0
-3566 -3568 0
-3566 -3569 0
-3566 -3570 0
-3566 -3571 0
-3566 -3572 0
-3566 -3573 0
-3566 -3574 0
-3566 -3575 0
-3567 -3568 0
-3567 -3569 0
-3567 -3570 0
-3567 -3571 0
-3567 -3572 0
-3567 -3573 0
-3567 -3574 0
-3567 -3575 0
-3568 -3569 0
-3568 -3570 0
-3568 -3571 0
-3568 -3572 0
-3568 -3573 0
-3568 -3574 0
-3568 -3575 0
-3569 -3570 0
-3569 -3571 0
-3569 -3572 0
-3569 -3573 0
-3569 -3574 0
-3569 -3575 0
-3570 -3571 0
-3570 -3572 0
-3570 -3573 0
-3570 -3574 0
-3570 -3575 0
-3571 -3572 0
-3571 -3573 0
-3571 -3574 0
-3571 -3575 0
-3572 -3573 0
-3572 -3574 0
-3572 -3575 0
-3573 -3574 0
-3573 -3575 0
-3574 -3575 0
